(declare-fun e () String)
(declare-fun c () String)
(declare-fun b () String)
(declare-fun f () String)
(declare-fun a () String)
(assert (= (str.++ c a) (str.++ a "c")))
(assert (= "bf" (str.++ b c f)))
(assert (= (str.++ "h" e "ec") (str.++ b "a")))

(check-sat)
